(set-info :smt-lib-version 2.6)
(set-logic UF)
(set-info :source |Benchmarks from the paper: "Extending Sledgehammer with SMT Solvers" by Jasmin Blanchette, Sascha Bohme, and Lawrence C. Paulson, CADE 2011.  Translated to SMT2 by Andrew Reynolds and Morgan Deters.|)
(set-info :category "industrial")
(set-info :status unsat)
(declare-sort S1 0)
(declare-sort S2 0)
(declare-sort S3 0)
(declare-sort S4 0)
(declare-sort S5 0)
(declare-sort S6 0)
(declare-sort S7 0)
(declare-sort S8 0)
(declare-sort S9 0)
(declare-sort S10 0)
(declare-sort S11 0)
(declare-fun f1 () S1)
(declare-fun f2 () S1)
(declare-fun f3 (S3 S2) S4)
(declare-fun f4 () S3)
(declare-fun f5 (S5 S6) S4)
(declare-fun f6 (S7 S6) S5)
(declare-fun f7 (S4) S7)
(declare-fun f8 () S3)
(declare-fun f9 () S6)
(declare-fun f10 () S6)
(declare-fun f11 (S3 S8) S1)
(declare-fun f12 () S3)
(declare-fun f13 () S8)
(declare-fun f14 (S9 S4) S1)
(declare-fun f15 (S4 S9) S1)
(declare-fun f16 (S8 S3) S1)
(declare-fun f17 (S10 S6) S9)
(declare-fun f18 (S11 S6) S10)
(declare-fun f19 () S11)
(declare-fun f20 () S6)
(declare-fun f21 (S3) S4)
(assert (not (= f1 f2)))
(assert (forall ((?v0 S2)) (= (f3 f4 ?v0) (f5 (f6 (f7 (f3 f8 ?v0)) f9) f10))))
(assert (= (f11 f12 f13) f1))
(assert (forall ((?v0 S9) (?v1 S4)) (= (= (f14 ?v0 ?v1) f1) (= (f15 ?v1 ?v0) f1))))
(assert (forall ((?v0 S3) (?v1 S8)) (= (= (f11 ?v0 ?v1) f1) (= (f16 ?v1 ?v0) f1))))
(assert (let ((?v_0 (f18 f19 f20))) (not (=> (forall ((?v0 S2)) (let ((?v_1 (f3 f8 ?v0))) (= (= (f14 (f17 ?v_0 f10) ?v_1) f1) (= (f14 (f17 ?v_0 f9) (f5 (f6 (f7 ?v_1) f9) f10)) f1)))) (=> (forall ((?v0 S6) (?v1 S6) (?v2 S6) (?v3 S6) (?v4 S3) (?v5 S3)) (=> (not (= ?v0 ?v1)) (=> (not (= ?v2 ?v3)) (=> (not (= ?v0 ?v3)) (=> (not (= ?v1 ?v2)) (=> (= (f11 ?v4 f13) f1) (=> (= (f11 ?v5 f13) f1) (=> (forall ((?v6 S2)) (= (= (f14 (f17 (f18 f19 ?v0) ?v1) (f3 ?v4 ?v6)) f1) (= (f14 (f17 (f18 f19 ?v2) ?v3) (f3 ?v5 ?v6)) f1))) (= (= (f14 (f17 (f18 f19 ?v0) ?v1) (f21 ?v4)) f1) (= (f14 (f17 (f18 f19 ?v2) ?v3) (f21 ?v5)) f1)))))))))) (=> (= (f11 f8 f13) f1) (=> (= (f11 f4 f13) f1) (=> (and (not (= f20 f10)) (and (not (= f20 f9)) (not (= f10 f9)))) (= (= (f14 (f17 ?v_0 f10) (f21 f8)) f1) (= (f14 (f17 ?v_0 f9) (f21 f4)) f1))))))))))
(check-sat)
(exit)
